000 000 000 000 002 002 009 019 005 008 010 002 000 001 000 001 004 005 003 000 000 000 000 000 000 000 000 000 000 -99 001
-99 000 000 000 001 002 003 012 010 004 008 001 000 000 000 000 001 003 002 000 001 000 000 000 000 000 000 000 000 -99 001
000 -99 000 000 000 000 006 004 003 001 000 001 000 000 000 000 000 000 001 000 000 000 000 000 000 000 000 000 000 -99 -99
000 000 000 000 000 000 000 000 000 000 000 000 000 000 000 000 000 000 000 000 000 000 000 000 000 000 000 000 000 -99 -99
000 000 000 000 000 000 000 000 000 000 000 000 000 000 000 000 000 000 000 000 000 000 000 -99 000 -99 -99 -99 -99 -99 -99
000 000 000 000 000 000 000 000 -99 000 000 000 000 000 000 000 000 -99 000 000 000 000 000 000 -99 -99 -99 -99 -99 -99 000
000 000 000 000 000 000 000 000 -99 000 000 -99 000 000 000 000 000 -99 -99 000 000 000 000 000 000 -99 -99 -99 -99 -99 -99
000 000 000 000 000 000 000 000 000 000 000 000 -99 -99 000 000 000 000 -99 -99 000 000 -99 000 000 -99 -99 -99 -99 -99 -99
000 000 000 000 000 000 000 000 000 000 000 000 -99 -99 000 000 000 000 -99 -99 000 -99 -99 000 000 -99 -99 -99 -99 -99 -99
000 000 000 000 000 000 -99 000 000 000 000 000 000 000 000 000 000 000 000 000 000 -99 -99 -99 000 000 000 000 -99 -99 000
000 000 000 000 000 000 -99 -99 000 000 000 000 000 000 000 000 000 000 000 000 000 -99 -99 -99 000 -99 000 000 -99 000 000
000 000 000 000 000 000 000 000 -99 000 000 000 000 000 000 000 000 000 000 000 -99 -99 -99 -99 000 -99 000 000 000 000 000
000 000 000 000 000 000 000 000 000 -99 000 000 000 000 000 000 000 000 000 000 000 -99 -99 -99 000 -99 000 000 000 -99 000
000 000 000 000 000 000 000 000 000 -99 000 000 000 000 000 000 000 -99 000 000 000 000 -99 -99 000 000 000 000 000 -99 000
000 000 000 000 000 000 000 000 000 -99 -99 000 000 000 000 000 -99 -99 000 000 000 000 -99 000 000 000 000 000 000 -99 -99
000 000 000 000 000 000 000 000 000 -99 -99 -99 000 000 000 -99 000 -99 000 000 -99 000 -99 000 000 000 000 000 000 000 -99
000 000 000 000 000 000 000 000 000 -99 -99 -99 000 000 000 -99 000 000 002 002 -99 000 000 -99 000 000 000 000 000 000 -99
000 000 000 000 000 000 000 000 000 -99 -99 000 -99 000 000 -99 000 000 004 010 -99 000 000 -99 000 000 000 -99 000 000 000
000 000 000 000 000 000 000 000 000 000 -99 000 -99 000 000 -99 000 000 002 006 -99 000 000 -99 000 000 -99 -99 -99 000 000
000 000 000 000 000 000 -99 000 000 000 -99 000 000 000 000 -99 000 000 000 001 000 000 000 -99 -99 -99 -99 -99 -99 000 -99
000 000 000 000 000 000 000 000 000 000 -99 000 000 000 000 -99 000 000 000 000 000 000 000 -99 -99 -99 -99 -99 -99 -99 -99
000 000 000 000 000 000 000 000 000 000 -99 000 000 000 000 000 000 000 000 000 000 000 000 -99 -99 -99 -99 -99 -99 -99 -99
000 000 000 000 000 000 000 000 000 000 -99 -99 000 000 000 000 000 -99 000 000 000 000 000 -99 -99 -99 -99 -99 -99 -99 -99
000 000 000 000 000 000 000 000 000 000 -99 -99 -99 000 000 000 000 -99 000 000 000 000 000 -99 -99 -99 -99 -99 -99 -99 000
000 000 000 000 000 000 000 000 000 000 -99 -99 000 000 000 000 000 000 000 000 000 000 000 -99 -99 -99 -99 -99 -99 -99 000
000 000 000 000 000 000 000 000 000 000 -99 -99 000 000 000 000 000 000 000 000 000 000 000 -99 -99 -99 -99 -99 -99 -99 000
000 000 000 000 000 000 000 000 000 000 000 -99 000 000 000 000 000 000 000 000 000 000 -99 -99 -99 -99 -99 -99 -99 -99 000
000 000 000 000 000 000 000 000 000 000 -99 -99 -99 000 000 000 000 000 000 000 000 000 -99 -99 -99 -99 -99 -99 -99 -99 000
000 000 000 000 000 000 000 000 000 000 -99 -99 -99 000 000 000 000 000 000 000 000 000 -99 -99 -99 -99 -99 -99 -99 -99 000
000 000 000 000 000 000 000 000 000 000 -99 -99 -99 000 000 000 000 000 000 000 000 000 -99 000 -99 -99 -99 -99 -99 -99 -99
000 000 000 000 000 000 000 000 000 000 -99 000 -99 000 000 000 000 000 000 000 000 000 -99 000 000 -99 -99 -99 -99 -99 -99
000 000 000 000 000 000 000 000 000 000 000 000 000 000 000 000 000 000 000 000 000 000 000 000 000 -99 -99 -99 -99 -99 -99
000 000 000 000 000 000 000 000 000 000 000 000 000 000 000 000 000 000 000 000 -99 000 000 000 000 -99 -99 000 000 -99 000
000 000 000 000 000 000 000 000 000 000 000 000 000 000 000 000 000 000 000 000 000 000 000 000 000 000 000 000 000 000 000
-99 000 000 000 000 000 000 000 000 000 000 000 000 000 000 000 000 000 000 000 -99 000 000 000 000 000 000 000 000 000 000
-99 000 000 000 000 000 000 000 000 000 000 000 000 000 000 000 000 000 000 000 000 000 000 -99 000 000 000 000 000 000 000
000 -99 -99 000 000 -99 000 000 000 000 000 000 000 000 000 000 000 000 000 000 000 000 000 000 000 000 000 000 000 000 000
000 -99 000 000 000 -99 000 000 000 000 000 000 000 000 000 000 000 000 000 000 000 000 000 000 000 000 000 000 000 000 000
000 -99 -99 000 000 -99 000 000 000 000 000 000 000 000 000 000 000 000 000 000 000 000 000 000 000 000 000 000 000 000 000
000 -99 -99 -99 -99 -99 000 000 -99 000 000 000 000 000 000 000 000 000 000 000 000 000 000 000 000 000 000 000 000 000 000
-99 -99 -99 -99 -99 -99 -99 -99 -99 000 000 000 000 000 000 000 000 -99 000 000 000 000 000 000 000 000 000 000 000 000 000
-99 -99 -99 -99 -99 -99 -99 -99 -99 -99 000 000 000 000 000 000 000 000 000 000 000 000 000 000 000 000 000 000 000 000 000
-99 -99 -99 -99 -99 -99 -99 -99 -99 -99 000 000 000 000 000 000 000 000 000 000 000 000 000 000 000 000 000 000 000 000 000
-99 -99 -99 -99 -99 -99 000 -99 -99 -99 000 000 000 000 000 000 000 000 000 000 000 000 000 000 000 000 000 000 000 000 000
000 000 -99 -99 -99 000 000 -99 -99 -99 000 000 000 000 000 000 000 000 000 -99 000 000 000 000 000 000 000 000 000 000 000
000 000 000 000 002 002 000 -99 -99 -99 000 000 000 000 000 000 000 000 -99 000 000 000 000 000 000 000 000 000 000 000 000
000 000 000 000 000 001 -99 -99 -99 -99 -99 -99 000 000 000 000 000 000 000 000 000 000 000 000 000 000 000 000 000 000 000
000 000 000 000 000 001 -99 -99 -99 -99 -99 -99 -99 000 000 000 000 000 000 000 000 000 000 000 000 000 000 000 000 000 000
000 000 000 000 000 000 -99 -99 -99 -99 -99 -99 -99 000 000 000 000 000 000 000 000 000 000 000 000 000 000 000 000 000 000
000 000 000 000 000 000 -99 -99 -99 -99 -99 -99 -99 -99 -99 000 000 000 000 000 000 000 000 000 000 000 000 000 000 000 000
000 000 001 001 000 000 000 -99 -99 -99 -99 -99 -99 -99 -99 -99 -99 000 000 000 000 000 000 000 000 000 000 000 000 000 000
000 002 002 001 000 000 000 -99 -99 -99 -99 -99 -99 -99 -99 -99 -99 -99 000 000 000 000 000 001 000 000 000 000 000 000 000
002 002 002 001 001 000 -99 -99 -99 -99 -99 -99 -99 -99 -99 -99 000 000 000 000 000 000 000 000 000 001 000 000 000 000 -99
008 004 004 001 000 000 -99 -99 -99 -99 -99 -99 -99 -99 -99 000 000 000 000 000 -99 000 000 000 000 000 000 000 000 000 -99
006 005 004 002 000 000 -99 -99 -99 -99 -99 -99 -99 -99 000 000 000 000 -99 -99 -99 -99 000 000 000 000 000 -99 000 -99 -99
